s td 20 3 22
b 1 1 2 12
b 2 2 12 13
b 3 2 3 13
b 4 3 13 14
b 5 3 4 14
b 6 4 14 15
b 7 4 5 15
b 8 5 15 16
b 9 5 6 16
b 10 6 16 17
b 11 6 7 17
b 12 7 17 18
b 13 7 8 18
b 14 8 18 19
b 15 8 9 19
b 16 9 19 20
b 17 9 10 20
b 18 10 20 21
b 19 10 11 21
b 20 11 21 22
1 2
2 3
3 4
4 5
5 6
6 7
7 8
8 9
9 10
10 11
11 12
12 13
13 14
14 15
15 16
16 17
17 18
18 19
19 20
